\ENCODING=ISO-8859-1
\Problem name: IloCplex

Minimize
 obj: x1 + x2 + x3 + x4 + x5 + x6 + 1000000000000 x7 + x8 + x9 + x10 + x11
      + x12 + x13 + x14 + x15 + x16 + x17 + 1000000000000 x18 + x19 + x20 + x21
      + x22 + x23 + x24 + x25 + x26 + x27 + x28 + x29 + x30 + x31 + x32 + x33
      + x34 + x35 + x36 + x37 + x38 + x39 + x40 + x41 + x42 + x43 + x44 + x45
      + x46 + x47 + x48 + x49 + 1000000000000 x50 + x51 + x52 + x53 + x54 + x55
      + x56 + x57 + x58 + x59 + x60 + x61 + x62 + x63 + x64 + x65 + x66 + x67
      + x68 + x69 + x70 + x71 + x72 + x73 + x74 + x75 + x76 + x77 + x78 + x79
      + x80 + x81 + x82 + x83 + x84 + x85 + x86 + x87 + x88 + x89 + x90 + x91
      + x92 + x93 + x94 + x95 + x96 + x97 + x98 + x99 + x100 + x101 + x102
      + x103 + x104 + x105 + x106 + x107 + x108 + x109 + x110 + x111 + x112
      + x113 + x114 + x115 + x116 + x117 + x118 + x119 + x120 + x121 + x122
      + x123 + x124 + x125 + x126 + x127 + x128 + x129 + x130 + x131 + x132
      + x133 + x134 + x135 + x136 + x137 + x138 + x139 + x140 + x141 + x142
      + x143 + x144 + x145 + x146 + x147 + x148 + x149 + x150 + x151 + x152
      + x153 + x154 + x155 + x156 + x157 + x158 + x159 + x160 + x161 + x162
      + x163 + x164 + x165 + x166 + x167 + x168 + x169 + x170 + x171 + x172
      + x173 + x174 + x175 + x176 + x177 + x178 + x179 + x180 + x181 + x182
      + x183 + x184 + x185 + x186 + x187 + x188 + x189 + x190 + x191 + x192
      + x193 + x194 + x195 + x196 + x197 + x198 + x199 + x200 + x201 + x202
      + x203 + x204 + x205 + x206 + x207 + x208 + x209 + x210 + x211 + x212
      + x213 + x214 + x215 + x216 + x217 + x218 + x219 + x220 + x221 + x222
      + x223 + x224 + x225 + x226 + x227 + x228 + x229 + x230 + x231 + x232
      + x233 + x234 + x235 + x236 + x237 + x238 + x239 + x240 + x241 + x242
      + x243 + x244 + x245 + x246 + x247 + x248
Subject To
 c1:  x1 + x197 + x199 + x205 + x212 + x213 + x239  = 1
 c2:  x2 + x193 + x194 + x220 + x221 + x228  = 1
 c3:  x3 + x185 + x188 + x192 + x202 + x217 + x236  = 1
 c4:  x4 + x180 + x181 + x182 + x211 + x227 + x238 + x241 + x244  = 1
 c5:  x5 + x173 + x174 + x176 + x184 + x200 + x201 + x208 + x231 + x245  = 1
 c6:  x6 + x170 + x171 + x179 + x204 + x229 + x234  = 1
 c7:  x7 + x163 + x165 + x167 + x190 + x196  = 1
 c8:  x8 + x159 + x160 + x161 + x164 + x175 + x186 + x218 + x219 + x233  = 1
 c9:  x9 + x153 + x157 + x158 + x223 + x246  = 1
 c10: x10 + x150 + x152 + x155 + x156 + x243  = 1
 c11: x11 + x140 + x149 + x172 + x191 + x198 + x206 + x247  = 1
 c12: x12 + x141 + x143 + x148 + x195 + x215 + x224 + x235  = 1
 c13: x13 + x136 + x137 + x168 + x187 + x207 + x225  = 1
 c14: x14 + x133 + x134 + x135 + x177 + x183 + x209 + x210  = 1
 c15: x15 + x125 + x132 + x138 + x142 + x158 + x224 + x237 + x240  = 1
 c16: x16 + x124 + x125 + x127 + x139 + x151 + x154 + x169 + x203 + x234  = 1
 c17: x17 + x120 + x124 + x132 + x136 + x148 + x189 + x209 + x216 + x232 + x233
      + x242 + x243  = 1
 c18: x18 + x117 + x120 + x130 + x147 + x169 + x190 + x210 + x214 + x219 + x235
       = 1
 c19: x19 + x112 + x117 + x131 + x149 + x162 + x187 + x196 + x204  = 1
 c20: x20 + x107 + x112 + x130 + x134 + x150 + x171 + x218 + x222 + x240 + x248
       = 1
 c21: x21 + x107 + x108 + x123 + x127 + x128 + x129 + x133 + x144 + x145 + x166
      + x200 + x232  = 1
 c22: x22 + x95 + x100 + x110 + x111 + x114 + x115 + x129 + x154 + x183 + x206
      + x216 + x222 + x226 + x245  = 1
 c23: x23 + x94 + x95 + x105 + x108 + x119 + x126 + x128 + x131 + x146 + x168
      + x177 + x178 + x179 + x182 + x236 + x248  = 1
 c24: x24 + x88 + x91 + x94 + x102 + x104 + x109 + x115 + x153 + x166 + x178
      + x186 + x203 + x225  = 1
 c25: x25 + x88 + x91 + x92 + x97 + x98 + x100 + x122 + x142 + x143 + x170
      + x191 + x193 + x213 + x227 + x242  = 1
 c26: x26 + x82 + x88 + x90 + x102 + x103 + x105 + x113 + x119 + x121 + x122
      + x135 + x151 + x152 + x189 + x195 + x214 + x223 + x230  = 1
 c27: x27 + x82 + x85 + x86 + x91 + x96 + x99 + x116 + x118 + x121 + x141
      + x151 + x156 + x202 + x221 + x230  = 1
 c28: x28 + x77 + x79 + x81 + x82 + x83 + x92 + x93 + x99 + x101 + x103 + x106
      + x111 + x146 + x162 + x163 + x175 + x178 + x181 + x185 + x197 + x198
      + x226 + x230 + x231 + x244  = 1
 c29: x29 + x67 + x73 + x75 + x76 + x81 + x84 + x85 + x93 + x97 + x115 + x144
      + x157 + x160 + x172 + x201 + x207  = 1
 c30: x30 + x75 + x76 + x78 + x89 + x98 + x99 + x109 + x138 + x145 + x146
      + x155 + x162 + x167 + x176 + x199 + x203  = 1
 c31: x31 + x77 + x78 + x79 + x80 + x81 + x85 + x87 + x100 + x104 + x106 + x118
      + x123 + x140 + x145 + x161 + x184 + x188 + x217 + x226 + x241 + x246
      + x248  = 1
 c32: x32 + x70 + x72 + x73 + x74 + x75 + x79 + x86 + x101 + x111 + x116 + x119
      + x123 + x137 + x139 + x142 + x159 + x180 + x192 + x207 + x212 + x237
      + x242  = 1
 c33: x33 + x66 + x67 + x70 + x71 + x72 + x73 + x77 + x78 + x83 + x90 + x96
      + x98 + x101 + x102 + x106 + x114 + x121 + x126 + x129 + x137 + x155
      + x157 + x205 + x214 + x220 + x238  = 1
 c34: x34 + x66 + x67 + x68 + x69 + x70 + x71 + x72 + x75 + x87 + x93 + x109
      + x110 + x113 + x114 + x118 + x126 + x128 + x135 + x147 + x156 + x173
      + x232  = 1
 c35: x35 + x62 + x63 + x65 + x66 + x68 + x69 + x70 + x71 + x74 + x76 + x80
      + x83 + x84 + x87 + x89 + x90 + x96 + x99 + x104 + x105 + x106 + x116
      + x122 + x144 + x147 + x154 + x161 + x164 + x166 + x174 + x215 + x222
      + x228 + x229 + x230 + x237 + x238 + x246 + x247  = 1
 c36: x36 + x58 + x59 + x60 + x61 + x62 + x63 + x64 + x65 + x68 + x69 + x71
      + x77 + x80 + x84 + x86 + x95 + x110 + x112 + x138 + x139 + x140 + x147
      + x164 + x167 + x174 + x208 + x211 + x215 + x240  = 1
 c37: x37 + x51 + x52 + x53 + x54 + x55 + x56 + x57 + x58 + x59 + x61 + x64
      + x65 + x68 + x72 + x74 + x78 + x80 + x84 + x87 + x89 + x90 + x96 + x97
      + x101 + x103 + x108 + x114 + x125 + x152 + x159 + x163 + x165 + x195
      + x211 + x216 + x225 + x228 + x239 + x247  = 1
 c38: x38 + x51 + x52 + x53 + x54 + x55 + x56 + x57 + x58 + x59 + x60 + x64
      + x65 + x69 + x71 + x74 + x78 + x85 + x89 + x92 + x93 + x102 + x113
      + x116 + x120 + x139 + x143 + x194 + x198 + x223 + x237  = 1
 c39: x39 + x51 + x52 + x53 + x54 + x55 + x56 + x57 + x58 + x59 + x60 + x61
      + x63 + x64 + x66 + x68 + x73 + x79 + x83 + x86 + x89 + x92 + x93 + x96
      + x98 + x103 + x104 + x110 + x113 + x118 + x121 + x131 + x144 + x146
      + x165 + x169 + x189 + x191 + x194 + x220 + x229 + x247  = 1
 c40: x40 + x51 + x52 + x53 + x54 + x55 + x56 + x57 + x58 + x59 + x60 + x61
      + x62 + x66 + x67 + x74 + x76 + x81 + x84 + x86 + x87 + x94 + x101 + x105
      + x106 + x107 + x113 + x118 + x126 + x133 + x160 + x173 + x189 + x201
      + x205 + x208 + x215 + x217 + x244  = 1
 c41: x41 + x51 + x52 + x53 + x54 + x55 + x56 + x57 + x58 + x59 + x60 + x61
      + x62 + x63 + x65 + x70 + x76 + x80 + x82 + x90 + x92 + x94 + x97 + x108
      + x110 + x122 + x127 + x130 + x131 + x138 + x162 + x172 + x176 + x181
      + x186 + x192 + x209 + x239  = 1
 c42: x42 + x51 + x52 + x53 + x54 + x55 + x56 + x57 + x58 + x59 + x60 + x61
      + x62 + x63 + x64 + x67 + x69 + x70 + x74 + x77 + x83 + x85 + x87 + x97
      + x98 + x103 + x109 + x117 + x122 + x124 + x130 + x132 + x141 + x145
      + x168 + x172 + x173 + x175 + x177 + x180 + x183 + x184 + x185 + x226
      + x229 + x231 + x239 + x241  = 1
 c43: x43 + x51 + x52 + x53 + x54 + x55 + x56 + x57 + x58 + x62 + x63 + x64
      + x65 + x69 + x72 + x73 + x79 + x80 + x83 + x84 + x88 + x96 + x109 + x111
      + x116 + x126 + x127 + x132 + x134 + x137 + x153 + x165 + x179 + x188
      + x197 + x206 + x208 + x212 + x227 + x231 + x235  = 1
 c44: x44 + x51 + x52 + x53 + x54 + x55 + x56 + x57 + x59 + x61 + x62 + x63
      + x64 + x65 + x66 + x69 + x72 + x73 + x79 + x80 + x83 + x84 + x89 + x90
      + x91 + x95 + x97 + x99 + x113 + x116 + x117 + x123 + x124 + x126 + x140
      + x160 + x165 + x166 + x170 + x175 + x176 + x194 + x211 + x221 + x222
      + x242 + x243  = 1
 c45: x45 + x51 + x52 + x53 + x54 + x55 + x56 + x60 + x61 + x62 + x63 + x64
      + x65 + x67 + x68 + x69 + x71 + x73 + x76 + x81 + x82 + x91 + x95 + x104
      + x107 + x109 + x111 + x119 + x121 + x128 + x136 + x149 + x166 + x178
      + x199 + x208 + x210 + x212 + x214 + x216 + x218  = 1
 c46: x46 + x51 + x52 + x53 + x54 + x55 + x60 + x61 + x62 + x63 + x64 + x65
      + x66 + x68 + x69 + x72 + x74 + x76 + x80 + x81 + x83 + x86 + x92 + x94
      + x97 + x100 + x103 + x109 + x113 + x114 + x115 + x119 + x121 + x122
      + x127 + x150 + x164 + x165 + x170 + x175 + x177 + x184 + x198 + x199
      + x206 + x214 + x224  = 1
 c47: x47 + x51 + x52 + x53 + x54 + x60 + x61 + x62 + x63 + x64 + x65 + x66
      + x67 + x71 + x75 + x89 + x90 + x92 + x94 + x104 + x105 + x107 + x114
      + x116 + x117 + x124 + x129 + x134 + x136 + x141 + x150 + x159 + x172
      + x174 + x188 + x202 + x210 + x213 + x241  = 1
 c48: x48 + x51 + x52 + x53 + x60 + x61 + x62 + x63 + x64 + x65 + x66 + x67
      + x68 + x72 + x76 + x77 + x79 + x84 + x87 + x89 + x96 + x100 + x101
      + x102 + x110 + x112 + x141 + x144 + x149 + x153 + x155 + x168 + x170
      + x180 + x181 + x184 + x189 + x197 + x202 + x205 + x226 + x233 + x245
       = 1
 c49: x49 + x51 + x52 + x60 + x61 + x63 + x65 + x66 + x67 + x68 + x69 + x73
      + x74 + x77 + x80 + x82 + x89 + x93 + x97 + x98 + x100 + x107 + x114
      + x116 + x118 + x119 + x134 + x138 + x139 + x141 + x145 + x147 + x148
      + x153 + x160 + x163 + x180 + x187 + x191 + x192 + x198 + x208 + x210
      + x214 + x216 + x219 + x221 + x227 + x246  = 1
 c50: x50 + x51 + x60 + x62 + x64 + x65 + x66 + x67 + x68 + x69 + x70 + x73
      + x78 + x81 + x84 + x88 + x97 + x101 + x105 + x107 + x117 + x127 + x128
      + x134 + x138 + x139 + x141 + x144 + x148 + x152 + x154 + x164 + x170
      + x177 + x181 + x187 + x190 + x201 + x204 + x228 + x244  = 1
Bounds
      x51 = 0
      x52 = 0
      x53 = 0
      x54 = 0
      x55 = 0
      x56 = 0
      x57 = 0
      x58 = 0
      x59 = 0
      x60 = 0
      x61 = 0
      x62 = 0
      x63 = 0
      x64 = 0
      x65 = 0
      x66 = 0
      x68 = 0
      x69 = 0
      x71 = 0
      x73 = 0
      x80 = 0
      x81 = 0
      x82 = 0
      x83 = 0
      x84 = 0
      x89 = 0
      x92 = 0
      x93 = 0
      x95 = 0
      x96 = 0
      x98 = 0
      x101 = 0
      x103 = 0
      x104 = 0
      x107 = 0
      x109 = 0
      x111 = 0
      x112 = 0
      x113 = 0
      x114 = 0
      x116 = 0
      x121 = 0
      x129 = 0
      x133 = 0
      x134 = 0
      x135 = 0
      x136 = 0
      x143 = 0
      x144 = 0
      x146 = 0
      x147 = 0
      x149 = 0
      x150 = 0
      x151 = 0
      x156 = 0
      x157 = 0
      x158 = 0
      x163 = 0
      x164 = 0
      x165 = 0
      x167 = 0
      x171 = 0
      x172 = 0
      x173 = 0
      x174 = 0
      x179 = 0
      x182 = 0
      x183 = 0
      x185 = 0
      x188 = 0
      x189 = 0
      x191 = 0
      x193 = 0
      x194 = 0
      x195 = 0
      x196 = 0
      x198 = 0
      x199 = 0
      x200 = 0
      x203 = 0
      x205 = 0
      x206 = 0
      x208 = 0
      x209 = 0
      x210 = 0
      x211 = 0
      x212 = 0
      x213 = 0
      x215 = 0
      x216 = 0
      x217 = 0
      x218 = 0
      x220 = 0
      x222 = 0
      x223 = 0
      x224 = 0
      x226 = 0
      x227 = 0
      x229 = 0
      x232 = 0
      x234 = 0
      x236 = 0
      x237 = 0
      x238 = 0
      x240 = 0
      x241 = 0
      x243 = 0
      x247 = 0
End
